p cnf 37 13
-9 14 2 23 -3 -22 27 0
-3 -17 -18 -5 -1 -13 -12 0
-10 1 -8 -4 18 -9 23 0
22 -7 3 -32 11 1 13 0
9 -2 -20 -16 28 29 -24 0
-5 15 2 -10 -30 1 36 0
33 23 -14 -20 -37 8 -2 0
-8 -5 -9 11 14 1 -22 0
26 -4 11 -2 27 3 -1 0
5 4 16 11 -14 28 -10 0
2 3 11 -1 12 14 -16 0
31 13 36 22 15 -5 -1 0
-19 -1 -7 -5 15 2 4 0
